(set-info :source  loris-7.ddns.comp.nus.edu.sg/~project/hip/) 
;Variables declarations
(declare-fun cl () Int)
(declare-fun n () Int)
(declare-fun bh () Int)
(declare-fun v_bool_105_4805_primed () Int)
(declare-fun x () Int)
(declare-fun flted_12_8049 () Int)
(declare-fun v_int_109_4801_primed () Int)
(declare-fun v_int_109_4800_primed () Int)
(declare-fun x_primed () Int)
(declare-fun flted_12_8048 () Int)
(declare-fun bhl_8053 () Int)
(declare-fun nl_8052 () Int)
(declare-fun l_8051 () Int)
(declare-fun flted_12_8047 () Int)
(declare-fun bhr_8056 () Int)
(declare-fun nr_8055 () Int)
(declare-fun r_8054 () Int)
;Relations declarations
;Axioms assertions
;Antecedent
(assert (= flted_12_8049 1))
(assert (= flted_12_8048 0))
(assert (= flted_12_8047 0))
(assert (= cl 1))
(assert (= n (+ (+ nr_8055 1) nl_8052)))
(assert (= bhl_8053 bh))
(assert (= bhr_8056 bh))
(assert (not (> v_bool_105_4805_primed 0)))
(assert (> x_primed 0))
(assert (= x_primed x))
(assert (= v_int_109_4801_primed flted_12_8049))
(assert (= v_int_109_4800_primed 0))
(assert (not (= v_int_109_4801_primed v_int_109_4800_primed)))
(assert (= x_primed 1))
(assert (or (and (and (and (= flted_12_8048 0) (<= 2 bhl_8053)) (<= 1 nl_8052)) (> l_8051 0)) (or (and (and (and (< l_8051 1) (= nl_8052 0)) (= bhl_8053 1)) (= flted_12_8048 0)) (and (and (and (= flted_12_8048 1) (<= 1 bhl_8053)) (<= 1 nl_8052)) (> l_8051 0)))))
(assert (or (and (and (and (= flted_12_8047 0) (<= 2 bhr_8056)) (<= 1 nr_8055)) (> r_8054 0)) (or (and (and (and (< r_8054 1) (= nr_8055 0)) (= bhr_8056 1)) (= flted_12_8047 0)) (and (and (and (= flted_12_8047 1) (<= 1 bhr_8056)) (<= 1 nr_8055)) (> r_8054 0)))))
;Negation of Consequence
(assert (not false))
(check-sat)